c Sudoku solution
p cnf 729 0
141 0
157 0
174 0
183 0
233 0
269 0
291 0
342 0
395 0
517 0
552 0
563 0
353 0
594 0
623 0
636 0
655 0
664 0
677 0
718 0
735 0
743 0
832 0
845 0
165 0
934 0
337 0
287 0
244 0
959 0
976 0
985 0
998 0
962 0
913 0
921 0
947 0
311 0
324 0
681 0
414 0
215 0
531 0
467 0
451 0
648 0
699 0
612 0
222 0
192 0
278 0
386 0
379 0
256 0
368 0
754 0
884 0
858 0
575 0
425 0
789 0
482 0
473 0
496 0
588 0
449 0
546 0
438 0
529 0
128 0
116 0
139 0
819 0
772 0
871 0
797 0
893 0
761 0
866 0
726 0
827 0
